3700.59
0 7 11 10 1 9 3 12 4 2 14 17 5 8 6 13 0
0 35 20 19 46 16 91 29 24 25 23 22 15 21 26 28 18 27 0
0 84 44 38 37 42 43 41 39 34 33 30 32 31 0
0 64 49 47 48 45 60 52 50 54 55 56 57 40 53 0
0 59 61 65 66 63 62 69 68 67 58 0
0 75 74 72 73 83 82 126 70 71 81 79 78 77 80 76 0
0 90 88 85 93 86 87 92 95 94 89 0
0 102 103 101 108 107 106 104 99 100 97 96 98 105 0
0 119 113 114 118 117 115 110 121 129 116 109 111 112 0
0 130 133 125 124 123 120 136 131 128 122 51 132 127 0
0 199 143 135 134 139 145 141 140 142 144 137 147 138 0
0 153 148 157 163 150 154 149 155 152 151 156 0
0 36 168 165 158 164 161 160 159 162 166 0
0 169 177 179 170 171 172 173 174 175 176 167 0
0 186 187 182 181 185 184 180 178 192 183 0
0 193 191 197 195 196 188 189 190 194 146 0
0 198 0
